NumberOfSpecies           2
NumberOfAtoms             250

%block ChemicalSpeciesLabel
  1  12  Mg
  2  8  O
%endblock ChemicalSpeciesLabel

%block AtomicMass
  1  24.305000
  2  15.999000
%endblock AtomicMass

LatticeConstant           1.000000 Ang

%block LatticeVectors
  14.9963511389   0.000000000000  0.000000000000
  7.498175569448  12.98722105036  0.000000000000
  7.498175569448  4.329073683452  12.2444694313
%endblock LatticeVectors

AtomicCoordinatesFormat Ang

%block AtomicCoordinatesAndAtomicSpecies
1.4996351138897       0.865814736690425     0.61222347156505      1    1    Mg  
4.4989053416691       2.597444210071275     1.83667041469515      2    2    O   
2.9992702277794       1.731629473380825     3.061117357825249     1    3    Mg  
5.9985404555588       3.463258946761675     4.285564300955349     2    4    O   
4.4989053416691       2.597444210071225     5.51001124408545      1    5    Mg  
7.4981755694485       4.329073683452075     6.73445818721555      2    6    O   
5.9985404555588       3.463258946761625     7.958905130345649     1    7    Mg  
8.9978106833382       5.194888420142475     9.18335207347575      2    8    O   
7.4981755694485       4.329073683452025     10.40779901660585     1    9    Mg  
10.49744579722789     6.060703156832875     11.63224595973594     2    10   O   
2.9992702277794       3.463258946761725     0.61222347156505      1    11   Mg  
5.9985404555588       5.194888420142575     1.83667041469515      2    12   O   
4.4989053416691       4.329073683452125     3.061117357825249     1    13   Mg  
7.4981755694485       6.060703156832975     4.285564300955349     2    14   O   
5.9985404555588       5.194888420142525     5.51001124408545      1    15   Mg  
8.9978106833382       6.926517893523375     6.73445818721555      2    16   O   
7.4981755694485       6.060703156832925     7.958905130345649     1    17   Mg  
10.49744579722789     7.792332630213774     9.18335207347575      2    18   O   
8.9978106833382       6.926517893523325     10.40779901660585     1    19   Mg  
11.9970809111176      8.658147366904174     11.63224595973594     2    20   O   
4.4989053416691       6.060703156833026     0.61222347156505      1    21   Mg  
7.4981755694485       7.792332630213875     1.83667041469515      2    22   O   
5.9985404555588       6.926517893523425     3.061117357825249     1    23   Mg  
8.9978106833382       8.658147366904275     4.285564300955349     2    24   O   
7.4981755694485       7.792332630213826     5.51001124408545      1    25   Mg  
10.49744579722789     9.523962103594675     6.73445818721555      2    26   O   
8.9978106833382       8.658147366904226     7.958905130345649     1    27   Mg  
11.9970809111176      10.38977684028507     9.18335207347575      2    28   O   
10.4974457972279      9.523962103594625     10.40779901660585     1    29   Mg  
13.49671602500729     11.25559157697547     11.63224595973594     2    30   O   
5.9985404555588       8.658147366904327     0.61222347156505      1    31   Mg  
8.9978106833382       10.38977684028517     1.83667041469515      2    32   O   
7.4981755694485       9.523962103594727     3.061117357825249     1    33   Mg  
10.49744579722789     11.25559157697557     4.285564300955349     2    34   O   
8.9978106833382       10.38977684028512     5.51001124408545      1    35   Mg  
11.9970809111176      12.12140631366597     6.73445818721555      2    36   O   
10.4974457972279      11.25559157697552     7.958905130345649     1    37   Mg  
13.49671602500729     12.98722105035637     9.18335207347575      2    38   O   
11.9970809111176      12.12140631366592     10.40779901660585     1    39   Mg  
14.996351138897       13.85303578704677     11.63224595973594     2    40   O   
7.4981755694485       11.25559157697562     0.61222347156505      1    41   Mg  
10.4974457972279      12.98722105035647     1.83667041469515      2    42   O   
8.9978106833382       12.12140631366602     3.061117357825249     1    43   Mg  
11.9970809111176      13.85303578704687     4.285564300955349     2    44   O   
10.4974457972279      12.98722105035642     5.51001124408545      1    45   Mg  
13.4967160250073      14.71885052373727     6.73445818721555      2    46   O   
11.9970809111176      13.85303578704682     7.958905130345649     1    47   Mg  
14.996351138897       15.58466526042767     9.18335207347575      2    48   O   
13.4967160250073      14.71885052373722     10.40779901660585     1    49   Mg  
16.4959862527867      16.45047999711807     11.63224595973594     2    50   O   
4.4989053416691       0.865814736690425     0.61222347156505      1    51   Mg  
7.498175569448501     2.597444210071275     1.83667041469515      2    52   O   
5.9985404555588       1.731629473380825     3.061117357825249     1    53   Mg  
8.9978106833382       3.463258946761675     4.285564300955349     2    54   O   
7.4981755694485       2.597444210071225     5.51001124408545      1    55   Mg  
10.4974457972279      4.329073683452075     6.73445818721555      2    56   O   
8.9978106833382       3.463258946761625     7.958905130345649     1    57   Mg  
11.9970809111176      5.194888420142475     9.18335207347575      2    58   O   
10.4974457972279      4.329073683452025     10.40779901660585     1    59   Mg  
13.4967160250073      6.060703156832875     11.63224595973594     2    60   O   
5.9985404555588       3.463258946761725     0.61222347156505      1    61   Mg  
8.9978106833382       5.194888420142575     1.83667041469515      2    62   O   
7.4981755694485       4.329073683452125     3.061117357825249     1    63   Mg  
10.4974457972279      6.060703156832975     4.285564300955349     2    64   O   
8.9978106833382       5.194888420142525     5.51001124408545      1    65   Mg  
11.9970809111176      6.926517893523375     6.73445818721555      2    66   O   
10.4974457972279      6.060703156832925     7.958905130345649     1    67   Mg  
13.4967160250073      7.792332630213774     9.18335207347575      2    68   O   
11.9970809111176      6.926517893523325     10.40779901660585     1    69   Mg  
14.996351138897       8.658147366904174     11.63224595973594     2    70   O   
7.4981755694485       6.060703156833026     0.61222347156505      1    71   Mg  
10.4974457972279      7.792332630213875     1.83667041469515      2    72   O   
8.9978106833382       6.926517893523425     3.061117357825249     1    73   Mg  
11.9970809111176      8.658147366904275     4.285564300955349     2    74   O   
10.4974457972279      7.792332630213826     5.51001124408545      1    75   Mg  
13.4967160250073      9.523962103594675     6.73445818721555      2    76   O   
11.9970809111176      8.658147366904226     7.958905130345649     1    77   Mg  
14.996351138897       10.38977684028507     9.18335207347575      2    78   O   
13.4967160250073      9.523962103594625     10.40779901660585     1    79   Mg  
16.4959862527867      11.25559157697547     11.63224595973594     2    80   O   
8.9978106833382       8.658147366904327     0.61222347156505      1    81   Mg  
11.9970809111176      10.38977684028517     1.83667041469515      2    82   O   
10.49744579722789     9.523962103594727     3.061117357825249     1    83   Mg  
13.49671602500729     11.25559157697557     4.285564300955349     2    84   O   
11.9970809111176      10.38977684028512     5.51001124408545      1    85   Mg  
14.996351138897       12.12140631366597     6.73445818721555      2    86   O   
13.49671602500729     11.25559157697552     7.958905130345649     1    87   Mg  
16.4959862527867      12.98722105035637     9.18335207347575      2    88   O   
14.996351138897       12.12140631366592     10.40779901660585     1    89   Mg  
17.9956213666764      13.85303578704677     11.63224595973594     2    90   O   
10.4974457972279      11.25559157697562     0.61222347156505      1    91   Mg  
13.4967160250073      12.98722105035647     1.83667041469515      2    92   O   
11.9970809111176      12.12140631366602     3.061117357825249     1    93   Mg  
14.996351138897       13.85303578704687     4.285564300955349     2    94   O   
13.4967160250073      12.98722105035642     5.51001124408545      1    95   Mg  
16.4959862527867      14.71885052373727     6.73445818721555      2    96   O   
14.996351138897       13.85303578704682     7.958905130345649     1    97   Mg  
17.9956213666764      15.58466526042767     9.18335207347575      2    98   O   
16.4959862527867      14.71885052373722     10.40779901660585     1    99   Mg  
19.4952564805661      16.45047999711807     11.63224595973594     2    100  O   
7.498175569448499     0.865814736690425     0.61222347156505      1    101  Mg  
10.4974457972279      2.597444210071275     1.83667041469515      2    102  O   
8.9978106833382       1.731629473380825     3.061117357825249     1    103  Mg  
11.9970809111176      3.463258946761675     4.285564300955349     2    104  O   
10.49744579722789     2.597444210071225     5.51001124408545      1    105  Mg  
13.4967160250073      4.329073683452075     6.73445818721555      2    106  O   
11.9970809111176      3.463258946761625     7.958905130345649     1    107  Mg  
14.996351138897       5.194888420142475     9.18335207347575      2    108  O   
13.49671602500729     4.329073683452025     10.40779901660585     1    109  Mg  
16.4959862527867      6.060703156832875     11.63224595973594     2    110  O   
8.9978106833382       3.463258946761725     0.61222347156505      1    111  Mg  
11.9970809111176      5.194888420142575     1.83667041469515      2    112  O   
10.49744579722789     4.329073683452125     3.061117357825249     1    113  Mg  
13.49671602500729     6.060703156832975     4.285564300955349     2    114  O   
11.9970809111176      5.194888420142525     5.51001124408545      1    115  Mg  
14.996351138897       6.926517893523375     6.73445818721555      2    116  O   
13.49671602500729     6.060703156832925     7.958905130345649     1    117  Mg  
16.4959862527867      7.792332630213774     9.18335207347575      2    118  O   
14.996351138897       6.926517893523325     10.40779901660585     1    119  Mg  
17.9956213666764      8.658147366904174     11.63224595973594     2    120  O   
10.4974457972279      6.060703156833026     0.61222347156505      1    121  Mg  
13.4967160250073      7.792332630213875     1.83667041469515      2    122  O   
11.9970809111176      6.926517893523425     3.061117357825249     1    123  Mg  
14.996351138897       8.658147366904275     4.285564300955349     2    124  O   
13.4967160250073      7.792332630213826     5.51001124408545      1    125  Mg  
16.4959862527867      9.523962103594675     6.73445818721555      2    126  O   
14.996351138897       8.658147366904226     7.958905130345649     1    127  Mg  
17.9956213666764      10.38977684028507     9.18335207347575      2    128  O   
16.4959862527867      9.523962103594625     10.40779901660585     1    129  Mg  
19.4952564805661      11.25559157697547     11.63224595973594     2    130  O   
11.9970809111176      8.658147366904327     0.61222347156505      1    131  Mg  
14.996351138897       10.38977684028517     1.83667041469515      2    132  O   
13.49671602500729     9.523962103594727     3.061117357825249     1    133  Mg  
16.4959862527867      11.25559157697557     4.285564300955349     2    134  O   
14.996351138897       10.38977684028512     5.51001124408545      1    135  Mg  
17.9956213666764      12.12140631366597     6.73445818721555      2    136  O   
16.4959862527867      11.25559157697552     7.958905130345649     1    137  Mg  
19.4952564805661      12.98722105035637     9.18335207347575      2    138  O   
17.9956213666764      12.12140631366592     10.40779901660585     1    139  Mg  
20.99489159445579     13.85303578704677     11.63224595973594     2    140  O   
13.4967160250073      11.25559157697562     0.61222347156505      1    141  Mg  
16.4959862527867      12.98722105035647     1.83667041469515      2    142  O   
14.996351138897       12.12140631366602     3.061117357825249     1    143  Mg  
17.9956213666764      13.85303578704687     4.285564300955349     2    144  O   
16.4959862527867      12.98722105035642     5.51001124408545      1    145  Mg  
19.4952564805661      14.71885052373727     6.73445818721555      2    146  O   
17.9956213666764      13.85303578704682     7.958905130345649     1    147  Mg  
20.9948915944558      15.58466526042767     9.18335207347575      2    148  O   
19.4952564805661      14.71885052373722     10.40779901660585     1    149  Mg  
22.4945267083455      16.45047999711807     11.63224595973594     2    150  O   
10.4974457972279      0.865814736690425     0.61222347156505      1    151  Mg  
13.4967160250073      2.597444210071275     1.83667041469515      2    152  O   
11.9970809111176      1.731629473380825     3.061117357825249     1    153  Mg  
14.996351138897       3.463258946761675     4.285564300955349     2    154  O   
13.4967160250073      2.597444210071225     5.51001124408545      1    155  Mg  
16.4959862527867      4.329073683452075     6.73445818721555      2    156  O   
14.996351138897       3.463258946761625     7.958905130345649     1    157  Mg  
17.9956213666764      5.194888420142475     9.18335207347575      2    158  O   
16.4959862527867      4.329073683452025     10.40779901660585     1    159  Mg  
19.4952564805661      6.060703156832875     11.63224595973594     2    160  O   
11.9970809111176      3.463258946761725     0.61222347156505      1    161  Mg  
14.996351138897       5.194888420142575     1.83667041469515      2    162  O   
13.49671602500729     4.329073683452125     3.061117357825249     1    163  Mg  
16.4959862527867      6.060703156832975     4.285564300955349     2    164  O   
14.996351138897       5.194888420142525     5.51001124408545      1    165  Mg  
17.9956213666764      6.926517893523375     6.73445818721555      2    166  O   
16.4959862527867      6.060703156832925     7.958905130345649     1    167  Mg  
19.4952564805661      7.792332630213774     9.18335207347575      2    168  O   
17.9956213666764      6.926517893523325     10.40779901660585     1    169  Mg  
20.99489159445579     8.658147366904174     11.63224595973594     2    170  O   
13.4967160250073      6.060703156833026     0.61222347156505      1    171  Mg  
16.4959862527867      7.792332630213875     1.83667041469515      2    172  O   
14.996351138897       6.926517893523425     3.061117357825249     1    173  Mg  
17.9956213666764      8.658147366904275     4.285564300955349     2    174  O   
16.4959862527867      7.792332630213826     5.51001124408545      1    175  Mg  
19.4952564805661      9.523962103594675     6.73445818721555      2    176  O   
17.9956213666764      8.658147366904226     7.958905130345649     1    177  Mg  
20.9948915944558      10.38977684028507     9.18335207347575      2    178  O   
19.4952564805661      9.523962103594625     10.40779901660585     1    179  Mg  
22.4945267083455      11.25559157697547     11.63224595973594     2    180  O   
14.996351138897       8.658147366904327     0.61222347156505      1    181  Mg  
17.9956213666764      10.38977684028517     1.83667041469515      2    182  O   
16.4959862527867      9.523962103594727     3.061117357825249     1    183  Mg  
19.4952564805661      11.25559157697557     4.285564300955349     2    184  O   
17.9956213666764      10.38977684028512     5.51001124408545      1    185  Mg  
20.99489159445579     12.12140631366597     6.73445818721555      2    186  O   
19.4952564805661      11.25559157697552     7.958905130345649     1    187  Mg  
22.4945267083455      12.98722105035637     9.18335207347575      2    188  O   
20.99489159445579     12.12140631366592     10.40779901660585     1    189  Mg  
23.9941618222352      13.85303578704677     11.63224595973594     2    190  O   
16.49598625278669     11.25559157697562     0.61222347156505      1    191  Mg  
19.4952564805661      12.98722105035647     1.83667041469515      2    192  O   
17.9956213666764      12.12140631366602     3.061117357825249     1    193  Mg  
20.99489159445579     13.85303578704687     4.285564300955349     2    194  O   
19.4952564805661      12.98722105035642     5.51001124408545      1    195  Mg  
22.49452670834549     14.71885052373727     6.73445818721555      2    196  O   
20.99489159445579     13.85303578704682     7.958905130345649     1    197  Mg  
23.9941618222352      15.58466526042767     9.18335207347575      2    198  O   
22.49452670834549     14.71885052373722     10.40779901660585     1    199  Mg  
25.49379693612489     16.45047999711807     11.63224595973594     2    200  O   
13.4967160250073      0.865814736690425     0.61222347156505      1    201  Mg  
16.4959862527867      2.597444210071275     1.83667041469515      2    202  O   
14.996351138897       1.731629473380825     3.061117357825249     1    203  Mg  
17.9956213666764      3.463258946761675     4.285564300955349     2    204  O   
16.4959862527867      2.597444210071225     5.51001124408545      1    205  Mg  
19.4952564805661      4.329073683452075     6.73445818721555      2    206  O   
17.9956213666764      3.463258946761625     7.958905130345649     1    207  Mg  
20.9948915944558      5.194888420142475     9.18335207347575      2    208  O   
19.4952564805661      4.329073683452025     10.40779901660585     1    209  Mg  
22.4945267083455      6.060703156832875     11.63224595973594     2    210  O   
14.996351138897       3.463258946761725     0.61222347156505      1    211  Mg  
17.9956213666764      5.194888420142575     1.83667041469515      2    212  O   
16.4959862527867      4.329073683452125     3.061117357825249     1    213  Mg  
19.4952564805661      6.060703156832975     4.285564300955349     2    214  O   
17.9956213666764      5.194888420142525     5.51001124408545      1    215  Mg  
20.99489159445579     6.926517893523375     6.73445818721555      2    216  O   
19.4952564805661      6.060703156832925     7.958905130345649     1    217  Mg  
22.4945267083455      7.792332630213774     9.18335207347575      2    218  O   
20.99489159445579     6.926517893523325     10.40779901660585     1    219  Mg  
23.9941618222352      8.658147366904174     11.63224595973594     2    220  O   
16.49598625278669     6.060703156833026     0.61222347156505      1    221  Mg  
19.4952564805661      7.792332630213875     1.83667041469515      2    222  O   
17.9956213666764      6.926517893523425     3.061117357825249     1    223  Mg  
20.99489159445579     8.658147366904275     4.285564300955349     2    224  O   
19.4952564805661      7.792332630213826     5.51001124408545      1    225  Mg  
22.49452670834549     9.523962103594675     6.73445818721555      2    226  O   
20.99489159445579     8.658147366904226     7.958905130345649     1    227  Mg  
23.9941618222352      10.38977684028507     9.18335207347575      2    228  O   
22.49452670834549     9.523962103594625     10.40779901660585     1    229  Mg  
25.49379693612489     11.25559157697547     11.63224595973594     2    230  O   
17.9956213666764      8.658147366904327     0.61222347156505      1    231  Mg  
20.9948915944558      10.38977684028517     1.83667041469515      2    232  O   
19.49525648056610     9.523962103594727     3.061117357825249     1    233  Mg  
22.4945267083455      11.25559157697557     4.285564300955349     2    234  O   
20.9948915944558      10.38977684028512     5.51001124408545      1    235  Mg  
23.9941618222352      12.12140631366597     6.73445818721555      2    236  O   
22.4945267083455      11.25559157697552     7.958905130345649     1    237  Mg  
25.4937969361249      12.98722105035637     9.18335207347575      2    238  O   
23.9941618222352      12.12140631366592     10.40779901660585     1    239  Mg  
26.9934320500146      13.85303578704677     11.63224595973594     2    240  O   
19.4952564805661      11.25559157697562     0.61222347156505      1    241  Mg  
22.4945267083455      12.98722105035647     1.83667041469515      2    242  O   
20.9948915944558      12.12140631366602     3.061117357825249     1    243  Mg  
23.9941618222352      13.85303578704687     4.285564300955349     2    244  O   
22.4945267083455      12.98722105035642     5.51001124408545      1    245  Mg  
25.49379693612489     14.71885052373727     6.73445818721555      2    246  O   
23.9941618222352      13.85303578704682     7.958905130345649     1    247  Mg  
26.9934320500146      15.58466526042767     9.18335207347575      2    248  O   
25.49379693612489     14.71885052373722     10.40779901660585     1    249  Mg  
28.4930671639043      16.45047999711807     11.63224595973594     2    250  O   
%endblock AtomicCoordinatesAndAtomicSpecies

